c SAT problem
p wcnf 858 2356
1 75 -76 0
1 75 -60 0
1 75 3165 0
1 -90 3165 0
1 105 -3075 0
1 105 -106 0
1 105 -3120 0
1 -105 3165 0
1 3120 165 0
1 3120 -135 0
1 3120 105 0
1 3120 60 0
1 3135 3136 0
1 3135 181 0
1 -3135 -120 0
1 -3135 -60 0
1 3150 -196 0
1 3150 181 0
1 -3150 90 0
1 3150 -60 0
1 -3165 136 0
1 -3165 -105 0
1 3165 75 0
1 -3165 -181 0
1 -3165 -121 0
1 -3165 60 0
1 3165 3166 0
1 135 -3105 0
1 135 -136 0
1 -135 -3090 0
1 135 -3135 0
1 150 151 0
1 -165 3000 0
1 165 3135 0
1 -3060 -225 0
1 -3060 -195 0
1 -3060 105 0
1 3060 240 0
1 3075 210 0
1 3075 120 0
1 3090 211 0
1 3090 150 0
1 3105 -226 0
1 3105 165 0
1 3105 211 0
1 180 3075 0
1 180 3060 0
1 195 3045 0
1 -225 226 0
1 225 -3075 0
1 3000 300 0
1 -3000 -150 0
1 -3015 -195 0
1 -3015 -165 0
1 -3015 180 0
1 3030 195 0
1 3030 -3031 0
1 3030 315 0
1 3030 255 0
1 -3045 3030 0
1 106 -105 0
1 3315 -166 0
1 -3330 -197 0
1 -3330 -61 0
1 -3345 3346 0
1 -3345 -91 0
1 -136 3165 0
1 151 -3300 0
1 151 150 0
1 151 -3255 0
1 -151 -3225 0
1 -151 3195 0
1 166 3270 0
1 3240 -3255 0
1 3255 166 0
1 -3255 136 0
1 -3255 151 0
1 -3270 -256 0
1 3270 136 0
1 3270 106 0
1 -3270 -241 0
1 3270 -151 0
1 3285 166 0
1 -3285 3270 0
1 3285 106 0
1 -3285 -121 0
1 -181 3210 0
1 181 -3225 0
1 -181 3135 0
1 196 -195 0
1 196 3195 0
1 211 3090 0
1 -211 3166 0
1 226 -3136 0
1 226 211 0
1 3195 166 0
1 -3195 -270 0
1 -3210 -166 0
1 3225 -301 0
1 -3225 211 0
1 -3225 -181 0
1 -3225 316 0
1 -3225 286 0
1 240 -3045 0
1 240 -3180 0
1 240 -241 0
1 240 3090 0
1 240 3166 0
1 255 -3180 0
1 255 240 0
1 -255 3060 0
1 255 -3195 0
1 -270 -3121 0
1 -285 -3151 0
1 285 3195 0
1 -285 -286 0
1 3121 -330 0
1 3121 300 0
1 3121 270 0
1 -3121 -240 0
1 -3121 3120 0
1 -3121 3122 0
1 -3121 -211 0
1 -3121 -255 0
1 3136 -300 0
1 3136 270 0
1 3136 376 0
1 -3151 301 0
1 3151 285 0
1 -3166 331 0
1 -3166 301 0
1 -3166 -346 0
1 -300 -3045 0
1 300 -3061 0
1 330 -3136 0
1 330 -3046 0
1 330 3016 0
1 330 -3031 0
1 -345 3136 0
1 345 -3016 0
1 345 -3061 0
1 -345 -3031 0
1 -3061 -360 0
1 3061 330 0
1 -3076 3075 0
1 3076 -3077 0
1 -3076 435 0
1 -3091 391 0
1 -3091 361 0
1 -3106 -376 0
1 -3106 -285 0
1 360 3076 0
1 360 3046 0
1 -360 -3031 0
1 375 3076 0
1 375 -3046 0
1 390 391 0
1 405 3046 0
1 405 3016 0
1 405 3061 0
1 405 -3031 0
1 -405 -3001 0
1 3001 480 0
1 -3001 375 0
1 3001 3000 0
1 -3016 480 0
1 3016 -3015 0
1 3016 405 0
1 3031 360 0
1 -3046 480 0
1 3046 495 0
1 -3046 -465 0
1 -3046 -345 0
1 -92 3525 0
1 -92 -3495 0
1 -107 -3465 0
1 107 -108 0
1 -107 -3420 0
1 -107 3480 0
1 -107 -92 0
1 3480 -167 0
1 -3495 -122 0
1 3495 -62 0
1 -3510 -3511 0
1 -3525 -3526 0
1 -3525 -77 0
1 -3525 -123 0
1 -122 121 0
1 -122 -123 0
1 137 -3495 0
1 137 -3435 0
1 137 -3345 0
1 -137 -3480 0
1 137 -3420 0
1 152 -3465 0
1 152 3420 0
1 167 3360 0
1 167 3435 0
1 -3420 -227 0
1 3420 92 0
1 3420 3421 0
1 3435 182 0
1 3450 -167 0
1 3450 137 0
1 -3450 122 0
1 -3450 92 0
1 -3465 -107 0
1 -3465 -183 0
1 -182 3300 0
1 182 3405 0
1 182 -3390 0
1 -212 3270 0
1 227 3346 0
1 -227 3390 0
1 3360 -256 0
1 -3375 197 0
1 3375 167 0
1 -3375 -3376 0
1 3375 182 0
1 -3375 317 0
1 -3390 -227 0
1 3390 272 0
1 3390 -212 0
1 -3405 -167 0
1 241 3375 0
1 -241 -240 0
1 -256 -3346 0
1 -256 -255 0
1 271 3271 0
1 271 -3375 0
1 -271 -3286 0
1 -271 -286 0
1 -286 -271 0
1 286 285 0
1 -3301 331 0
1 3301 -3316 0
1 3316 -331 0
1 -3316 -271 0
1 3316 -3315 0
1 3331 -332 0
1 -3346 362 0
1 3346 332 0
1 -3346 -302 0
1 3346 241 0
1 3346 -317 0
1 301 3301 0
1 -301 3210 0
1 301 -3225 0
1 -316 -3241 0
1 -316 -3195 0
1 316 3180 0
1 331 -3301 0
1 346 3301 0
1 -346 -3241 0
1 -346 -3151 0
1 -3241 -421 0
1 3241 -406 0
1 -3256 406 0
1 -3256 -346 0
1 3271 3272 0
1 -3286 3271 0
1 3286 -362 0
1 -3286 331 0
1 3286 346 0
1 -376 377 0
1 -391 -3152 0
1 -391 -406 0
1 -406 3137 0
1 406 -3106 0
1 -406 3122 0
1 406 -3256 0
1 -3181 3180 0
1 -3181 465 0
1 3181 -435 0
1 -3181 -406 0
1 3181 376 0
1 3196 -391 0
1 3196 331 0
1 -3196 -376 0
1 -3196 -3197 0
1 3211 481 0
1 3211 -421 0
1 3211 391 0
1 -3211 -3210 0
1 3211 -331 0
1 3226 -3211 0
1 -3226 466 0
1 3226 -346 0
1 -420 3046 0
1 -420 -3181 0
1 -420 3031 0
1 435 -3181 0
1 -435 -3091 0
1 -450 -3137 0
1 450 3077 0
1 -450 -465 0
1 450 -3092 0
1 465 3181 0
1 465 466 0
1 465 3092 0
1 -3122 495 0
1 -3122 3121 0
1 3122 -406 0
1 3122 -510 0
1 3137 -420 0
1 3137 465 0
1 3137 435 0
1 3152 -481 0
1 3152 -3153 0
1 3152 -435 0
1 -3167 -3152 0
1 480 -3107 0
1 -480 -3077 0
1 -480 -3092 0
1 -495 3107 0
1 495 3016 0
1 495 -3122 0
1 495 3062 0
1 -495 -3031 0
1 -495 3001 0
1 510 -525 0
1 -510 -3122 0
1 -510 -3092 0
1 -510 3002 0
1 510 511 0
1 525 -3047 0
1 -3062 3077 0
1 3062 570 0
1 3062 540 0
1 -3077 480 0
1 -3077 525 0
1 3077 -3062 0
1 3107 450 0
1 -3107 -571 0
1 3107 510 0
1 555 -3047 0
1 -555 3032 0
1 -555 -540 0
1 -570 3047 0
1 570 585 0
1 -570 -3002 0
1 -585 -586 0
1 3002 585 0
1 -3002 -3001 0
1 -3002 -510 0
1 -3017 3002 0
1 -3017 585 0
1 3017 3018 0
1 -3017 -660 0
1 -3032 675 0
1 -3032 -555 0
1 -3032 -525 0
1 -3032 -3033 0
1 3047 -645 0
1 -3047 -585 0
1 3047 555 0
1 -3047 525 0
1 3047 3032 0
1 -3047 -540 0
1 -78 3660 0
1 -78 3675 0
1 78 -63 0
1 -93 3600 0
1 -108 3690 0
1 108 -109 0
1 -108 3705 0
1 -108 93 0
1 108 3615 0
1 3660 168 0
1 -3675 78 0
1 3675 -93 0
1 -3705 169 0
1 3705 3706 0
1 -3705 -154 0
1 123 3660 0
1 -123 -3630 0
1 -123 124 0
1 123 -3615 0
1 138 3525 0
1 -138 -3600 0
1 138 123 0
1 138 -3615 0
1 153 -3600 0
1 153 -3645 0
1 -168 -3525 0
1 168 -3630 0
1 168 -153 0
1 3600 258 0
1 3600 168 0
1 3600 213 0
1 3600 153 0
1 -3615 258 0
1 -3615 108 0
1 3615 -3600 0
1 3615 93 0
1 -3630 3645 0
1 3630 229 0
1 -3630 -214 0
1 3645 199 0
1 -3645 -138 0
1 3645 -214 0
1 183 -3585 0
1 -183 198 0
1 183 -3600 0
1 -183 -3570 0
1 -183 -184 0
1 198 3465 0
1 213 -3465 0
1 213 3570 0
1 -213 -3540 0
1 -228 3555 0
1 -228 -3526 0
1 228 -3450 0
1 3540 228 0
1 3540 272 0
1 3540 213 0
1 3540 -183 0
1 -3555 -213 0
1 -3570 228 0
1 3570 -168 0
1 3570 -303 0
1 3570 -273 0
1 3570 -213 0
1 -3570 -318 0
1 3585 -3586 0
1 3585 -198 0
1 -242 3526 0
1 242 -241 0
1 -257 -258 0
1 -257 3435 0
1 -257 -3540 0
1 272 3496 0
1 272 3436 0
1 272 -3540 0
1 -272 -3390 0
1 -287 -288 0
1 -287 3436 0
1 -287 3540 0
1 287 -3511 0
1 287 3390 0
1 3481 213 0
1 3496 3495 0
1 -3496 -213 0
1 3496 3481 0
1 -3511 -303 0
1 -3511 213 0
1 -3511 -3512 0
1 3526 -3525 0
1 -302 3331 0
1 -302 -3466 0
1 -302 301 0
1 -302 303 0
1 302 3451 0
1 -317 -3496 0
1 317 -3436 0
1 317 3451 0
1 -332 3496 0
1 -332 -3421 0
1 332 3391 0
1 -347 3436 0
1 3421 -332 0
1 3421 437 0
1 3421 -3422 0
1 3436 422 0
1 3436 302 0
1 3451 422 0
1 3451 332 0
1 3451 378 0
1 3466 422 0
1 3466 -302 0
1 3466 437 0
1 -362 361 0
1 362 -377 0
1 -377 3436 0
1 -392 3361 0
1 -392 -3302 0
1 392 -391 0
1 -407 3271 0
1 407 -3376 0
1 -407 -406 0
1 3361 3362 0
1 -3376 362 0
1 3376 3377 0
1 -3391 -3392 0
1 3391 362 0
1 3391 -407 0
1 -3391 377 0
1 3406 422 0
1 -3406 3407 0
1 3406 -497 0
1 -3406 437 0
1 -3406 407 0
1 -421 3302 0
1 421 436 0
1 436 3376 0
1 436 -435 0
1 436 3286 0
1 -466 -467 0
1 -466 -3317 0
1 -466 3257 0
1 3302 451 0
1 -3302 -496 0
1 -3302 407 0
1 3332 451 0
1 -3332 3331 0
1 3332 527 0
1 -3332 -466 0
1 -3347 -3332 0
1 3347 436 0
1 3347 -3348 0
1 -3347 -407 0
1 -481 -480 0
1 -481 -3302 0
1 481 3317 0
1 -481 3287 0
1 -496 3272 0
1 496 -3317 0
1 -496 -3196 0
1 511 -512 0
1 511 -3302 0
1 -511 -3182 0
1 -511 3152 0
1 -511 -3227 0
1 -511 -3197 0
1 -511 3167 0
1 526 3302 0
1 526 -525 0
1 -526 3317 0
1 526 -3197 0
1 -3242 616 0
1 -3242 -526 0
1 3242 511 0
1 -3257 496 0
1 3257 -466 0
1 3272 451 0
1 3272 466 0
1 -3272 572 0
1 3287 -451 0
1 3287 -616 0
1 3287 -3272 0
1 3287 587 0
1 -3287 -526 0
1 3287 -466 0
1 3287 572 0
1 541 3107 0
1 -541 3152 0
1 -541 -3227 0
1 556 3107 0
1 556 3122 0
1 -556 3167 0
1 -571 -3138 0
1 571 -3092 0
1 -586 3227 0
1 3182 -615 0
1 -3182 3181 0
1 -3197 -645 0
1 -3197 571 0
1 3227 676 0
1 3227 -631 0
1 3227 601 0
1 600 3168 0
1 -600 -615 0
1 600 3092 0
1 -600 3032 0
1 -600 601 0
1 -630 3138 0
1 -630 -3108 0
1 -630 3078 0
1 -630 3182 0
1 -630 -3123 0
1 -630 3093 0
1 -645 3108 0
1 645 3153 0
1 3123 -705 0
1 -3123 690 0
1 3123 -630 0
1 3138 -736 0
1 3138 -3137 0
1 -3153 -676 0
1 3153 -3152 0
1 -3153 -3154 0
1 3168 -615 0
1 -3168 661 0
1 660 3138 0
1 -660 3123 0
1 675 3138 0
1 -675 3017 0
1 675 -3093 0
1 690 -3108 0
1 690 3078 0
1 690 -3018 0
1 -705 -3108 0
1 -705 3048 0
1 705 3093 0
1 -705 3033 0
1 705 -3003 0
1 3063 645 0
1 -3063 -780 0
1 -3063 -720 0
1 -3063 -765 0
1 3078 675 0
1 3078 3063 0
1 -3078 765 0
1 -3078 735 0
1 -3093 736 0
1 -3093 -645 0
1 -3108 -736 0
1 -3108 -630 0
1 -720 3048 0
1 720 3003 0
1 -735 720 0
1 735 -3063 0
1 750 -3078 0
1 750 -3018 0
1 -765 -3063 0
1 -765 -3033 0
1 765 766 0
1 3003 720 0
1 3003 765 0
1 -3018 840 0
1 3018 -3017 0
1 -3033 780 0
1 3033 795 0
1 3033 765 0
1 -3048 705 0
1 3048 3049 0
1 3048 810 0
1 -3048 -855 0
1 -3048 825 0
1 -94 -3810 0
1 94 3825 0
1 94 -93 0
1 109 -3840 0
1 -109 3810 0
1 -109 110 0
1 -109 3870 0
1 -109 -94 0
1 3840 64 0
1 3840 169 0
1 3840 -154 0
1 -3870 -170 0
1 3870 185 0
1 3885 -170 0
1 3885 109 0
1 -124 125 0
1 -139 3780 0
1 -139 3855 0
1 139 -3795 0
1 -154 3780 0
1 154 3690 0
1 -154 -3795 0
1 -154 3735 0
1 169 -3810 0
1 169 -3750 0
1 -169 -3795 0
1 169 3735 0
1 169 -3705 0
1 169 154 0
1 3780 -169 0
1 3780 -109 0
1 -3780 -3795 0
1 -3780 -184 0
1 -3810 200 0
1 -3810 -139 0
1 3810 215 0
1 3825 169 0
1 -3825 3826 0
1 3825 -185 0
1 184 -3780 0
1 184 3660 0
1 199 -3780 0
1 -199 198 0
1 -199 -3690 0
1 -199 184 0
1 -199 -3705 0
1 -214 -3765 0
1 229 -3780 0
1 -229 -3720 0
1 -229 3765 0
1 -229 3735 0
1 -3720 -3721 0
1 -3720 -243 0
1 3720 -154 0
1 3720 319 0
1 3735 288 0
1 -3735 -258 0
1 3735 199 0
1 -3735 -304 0
1 -3750 -169 0
1 -3750 -3765 0
1 -3765 -244 0
1 3765 -184 0
1 -243 -3630 0
1 -243 3615 0
1 258 -3585 0
1 -258 3600 0
1 258 -3570 0
1 258 -3676 0
1 -273 -288 0
1 -273 -3691 0
1 -273 3706 0
1 288 -3706 0
1 -288 3646 0
1 -288 -287 0
1 -3661 288 0
1 3661 -379 0
1 -3661 -3676 0
1 3676 3661 0
1 -3676 273 0
1 -3676 -243 0
1 3676 -3675 0
1 -3691 364 0
1 3691 -304 0
1 -3691 -243 0
1 3691 -214 0
1 -3691 349 0
1 -3691 319 0
1 -3706 304 0
1 303 3616 0
1 303 -3585 0
1 303 -3555 0
1 -303 302 0
1 303 -3631 0
1 318 -3616 0
1 318 -3661 0
1 -318 -3570 0
1 -333 -3616 0
1 333 3586 0
1 333 3631 0
1 -333 -348 0
1 -348 -3586 0
1 348 -3526 0
1 348 -3661 0
1 -348 -3541 0
1 348 -349 0
1 3601 423 0
1 3601 408 0
1 -3601 -318 0
1 3616 393 0
1 3616 363 0
1 -3616 333 0
1 -3616 438 0
1 -3631 -364 0
1 -3631 273 0
1 -3631 -379 0
1 -3631 348 0
1 3646 -423 0
1 3646 394 0
1 -3646 -364 0
1 363 -364 0
1 363 -3601 0
1 -378 -3556 0
1 378 363 0
1 -378 -3601 0
1 378 3541 0
1 393 3616 0
1 -393 -3556 0
1 393 -3512 0
1 393 -3497 0
1 -393 -3571 0
1 393 -408 0
1 408 3466 0
1 -408 -3601 0
1 -408 3541 0
1 -408 407 0
1 -3556 -483 0
1 3556 333 0
1 3556 467 0
1 3571 -453 0
1 3571 393 0
1 -3571 -498 0
1 3571 3570 0
1 3571 408 0
1 3586 3585 0
1 3586 -423 0
1 3586 -333 0
1 -3586 408 0
1 -3586 378 0
1 422 -3556 0
1 -422 3527 0
1 -422 -3466 0
1 422 437 0
1 -422 -3421 0
1 -422 -3391 0
1 -437 -436 0
1 437 3451 0
1 -452 -453 0
1 -452 3452 0
1 452 -3391 0
1 -467 466 0
1 467 -3541 0
1 3482 -512 0
1 -3482 482 0
1 -3482 -3497 0
1 -3482 3481 0
1 -3497 482 0
1 3497 -452 0
1 3497 -437 0
1 -3497 -408 0
1 -3512 -452 0
1 -3512 422 0
1 3512 558 0
1 3512 437 0
1 3527 437 0
1 -482 -3361 0
1 497 -3361 0
1 -497 3422 0
1 -497 -3391 0
1 -512 -3332 0
1 512 3347 0
1 -512 3482 0
1 512 -3422 0
1 -527 -3332 0
1 527 -3497 0
1 -527 -3467 0
1 527 -3422 0
1 3422 -527 0
1 3437 -512 0
1 3437 617 0
1 3437 -3422 0
1 -3452 -512 0
1 -3452 452 0
1 -3452 -617 0
1 3452 558 0
1 -3452 -3451 0
1 3467 452 0
1 557 3272 0
1 557 556 0
1 -557 -558 0
1 -557 3407 0
1 557 3287 0
1 572 -3392 0
1 572 -3362 0
1 -572 3272 0
1 -572 587 0
1 572 -3437 0
1 572 573 0
1 587 3392 0
1 587 -3303 0
1 -587 586 0
1 -3362 616 0
1 -3362 572 0
1 3377 616 0
1 -3377 -557 0
1 3377 3378 0
1 -3377 -631 0
1 -3392 647 0
1 -3392 557 0
1 -3392 -3407 0
1 3407 617 0
1 3407 -662 0
1 -3407 572 0
1 601 3362 0
1 601 616 0
1 601 3272 0
1 -601 -3287 0
1 -616 -3272 0
1 631 3333 0
1 -646 645 0
1 646 3333 0
1 -3303 -646 0
1 -3303 -3304 0
1 -3303 -587 0
1 -3318 -3317 0
1 -3318 -631 0
1 -3333 -646 0
1 -3333 587 0
1 3333 -722 0
1 3348 -692 0
1 -661 3243 0
1 661 -3288 0
1 -661 -3197 0
1 676 -661 0
1 -676 -3227 0
1 676 3197 0
1 691 -3243 0
1 -691 690 0
1 691 -3318 0
1 706 3273 0
1 706 -3318 0
1 3243 -3244 0
1 3243 -721 0
1 -3243 661 0
1 3243 3258 0
1 3258 -781 0
1 -3288 -646 0
1 3288 -3273 0
1 -3288 722 0
1 3288 -691 0
1 3288 767 0
1 -721 -720 0
1 -736 3183 0
1 -736 -3123 0
1 736 -3093 0
1 -751 -3108 0
1 751 -3213 0
1 -751 750 0
1 -751 -3183 0
1 -751 -752 0
1 766 3183 0
1 766 -3093 0
1 -3183 691 0
1 3183 795 0
1 -3183 766 0
1 3198 706 0
1 -3198 -841 0
1 -3198 751 0
1 3198 -691 0
1 -3198 -825 0
1 3198 3197 0
1 3198 3199 0
1 3213 -781 0
1 3213 3228 0
1 3213 796 0
1 3228 691 0
1 -3228 856 0
1 780 -3078 0
1 795 -3078 0
1 -795 -3154 0
1 795 -3063 0
1 795 3033 0
1 810 3139 0
1 -810 -3154 0
1 -825 3048 0
1 -825 -3154 0
1 -825 3124 0
1 3124 -840 0
1 3124 -885 0
1 -3139 3140 0
1 3139 870 0
1 -3139 810 0
1 -3139 -780 0
1 3139 -751 0
1 3139 3124 0
1 -3139 825 0
1 -3139 766 0
1 -3154 841 0
1 3169 3168 0
1 -3169 -751 0
1 840 3079 0
1 -840 3048 0
1 -840 -3094 0
1 -855 3139 0
1 855 -3124 0
1 -870 3109 0
1 870 -3124 0
1 -870 -3094 0
1 885 870 0
1 -885 -3049 0
1 -885 3034 0
1 -3079 825 0
1 3094 931 0
1 -3094 840 0
1 3094 -975 0
1 -3094 -3093 0
1 -3094 3095 0
1 3094 -825 0
1 3109 960 0
1 3109 -901 0
1 3109 855 0
1 -900 3034 0
1 -915 916 0
1 -930 931 0
1 930 3034 0
1 -945 3079 0
1 945 3019 0
1 -3004 -900 0
1 3004 -885 0
1 3019 -930 0
1 3019 870 0
1 -3019 -915 0
1 3019 -1020 0
1 -3034 -870 0
1 -3034 945 0
1 -3034 1020 0
1 -3049 -3048 0
1 3049 975 0
1 65 4020 0
1 95 -4065 0
1 -95 110 0
1 -110 -4005 0
1 110 -3975 0
1 -110 109 0
1 -4020 4035 0
1 4020 170 0
1 -4020 155 0
1 -4035 -4036 0
1 -4035 170 0
1 4035 -80 0
1 4035 -4020 0
1 -4035 -95 0
1 -4050 -110 0
1 4065 -65 0
1 4065 -4050 0
1 125 4035 0
1 125 -4005 0
1 125 -3990 0
1 125 -3960 0
1 -140 -3975 0
1 -140 139 0
1 -155 4005 0
1 155 3975 0
1 155 -3960 0
1 155 154 0
1 170 -3945 0
1 -170 -4020 0
1 170 3990 0
1 -3960 3975 0
1 -3960 -170 0
1 3975 -200 0
1 -3975 140 0
1 3975 245 0
1 3990 140 0
1 4005 -110 0
1 185 -3840 0
1 -185 -3915 0
1 -185 -3855 0
1 -200 3855 0
1 200 -3930 0
1 215 -230 0
1 215 -3975 0
1 -215 3945 0
1 230 -3810 0
1 230 -3886 0
1 230 3871 0
1 3900 -244 0
1 3915 170 0
1 -3915 305 0
1 3915 -155 0
1 -3915 3900 0
1 3930 275 0
1 -3945 305 0
1 3945 -275 0
1 -244 -3780 0
1 244 3750 0
1 -244 3825 0
1 244 -243 0
1 -244 245 0
1 -259 260 0
1 -259 -3780 0
1 -259 -244 0
1 -274 -275 0
1 -274 -3765 0
1 289 -3781 0
1 -289 -3856 0
1 -3841 380 0
1 -3856 3855 0
1 3856 3857 0
1 -3856 -274 0
1 3856 244 0
1 3871 3870 0
1 3871 350 0
1 -3886 289 0
1 3886 259 0
1 -3886 -3887 0
1 3886 -244 0
1 -304 3781 0
1 -304 3750 0
1 304 -305 0
1 -319 -3691 0
1 319 -3765 0
1 -319 -3706 0
1 334 -3841 0
1 -334 -3751 0
1 -334 3691 0
1 334 333 0
1 334 -335 0
1 -334 -3826 0
1 -349 3811 0
1 -349 -3781 0
1 349 3691 0
1 -349 3856 0
1 -349 -348 0
1 3781 334 0
1 3781 274 0
1 -3781 439 0
1 -3781 -409 0
1 -3781 -349 0
1 3796 -3781 0
1 -3796 -334 0
1 -3796 -439 0
1 -3796 -319 0
1 -3811 -424 0
1 -3811 395 0
1 3811 365 0
1 -3811 -274 0
1 -3811 439 0
1 3826 -3811 0
1 -3826 3825 0
1 3826 -3827 0
1 -3826 439 0
1 3826 380 0
1 364 3736 0
1 -364 -379 0
1 364 3676 0
1 364 3646 0
1 -379 3751 0
1 379 380 0
1 -379 -3646 0
1 394 3736 0
1 409 3751 0
1 -409 3692 0
1 -409 3677 0
1 -3721 -423 0
1 -3721 394 0
1 -3721 3722 0
1 3721 -379 0
1 3736 -499 0
1 -3736 409 0
1 -3736 -349 0
1 -3751 484 0
1 -3751 -3752 0
1 3751 -364 0
1 -3766 3767 0
1 3766 469 0
1 -3766 409 0
1 423 -3616 0
1 -423 -3707 0
1 423 3646 0
1 -438 423 0
1 -453 -3586 0
1 -453 -3632 0
1 453 -468 0
1 -468 -3721 0
1 468 -3662 0
1 468 -467 0
1 3662 544 0
1 -3662 -423 0
1 3662 3663 0
1 -3662 -438 0
1 -3677 -483 0
1 -3677 -394 0
1 -3677 559 0
1 -3677 -498 0
1 3677 409 0
1 -3692 -484 0
1 -3692 -423 0
1 -3692 3691 0
1 -3692 3693 0
1 -3707 -484 0
1 3707 -3692 0
1 3707 -468 0
1 483 3617 0
1 -483 484 0
1 -483 -3677 0
1 498 3556 0
1 -498 -3527 0
1 498 -3632 0
1 498 -3541 0
1 498 -3677 0
1 513 3677 0
1 -513 3647 0
1 528 -3632 0
1 528 -529 0
1 528 -3572 0
1 528 3512 0
1 3602 3617 0
1 -3602 -483 0
1 3602 -3603 0
1 3602 468 0
1 -3617 3616 0
1 -3617 513 0
1 3617 3618 0
1 -3617 618 0
1 -3617 3602 0
1 -3617 -468 0
1 -3647 -3646 0
1 -3647 -559 0
1 3647 -528 0
1 543 -544 0
1 543 -558 0
1 -543 -3542 0
1 558 -3617 0
1 558 -3467 0
1 573 3617 0
1 573 3528 0
1 573 -588 0
1 -573 -3572 0
1 -588 -3498 0
1 -3542 -3541 0
1 -3542 -663 0
1 3557 -3556 0
1 3557 678 0
1 -3557 -647 0
1 -3557 -3558 0
1 -3557 558 0
1 -3572 -513 0
1 3572 -618 0
1 3572 -3571 0
1 3572 -3573 0
1 3572 573 0
1 -3587 678 0
1 3587 648 0
1 3587 -3572 0
1 -602 3528 0
1 -602 -3407 0
1 617 -616 0
1 617 3437 0
1 -617 3513 0
1 617 -3422 0
1 632 -3557 0
1 647 -3483 0
1 3483 -647 0
1 -3483 692 0
1 3483 -632 0
1 3498 738 0
1 -3498 3499 0
1 3498 602 0
1 -3513 -708 0
1 3513 663 0
1 3528 -678 0
1 3528 723 0
1 -3528 -693 0
1 3528 -663 0
1 -3528 -573 0
1 662 -3498 0
1 -662 -3468 0
1 677 3362 0
1 677 -676 0
1 677 -678 0
1 677 3348 0
1 677 3453 0
1 -677 3423 0
1 692 3498 0
1 692 -3348 0
1 707 3468 0
1 707 3348 0
1 -707 692 0
1 -3423 -782 0
1 -3423 -752 0
1 3438 737 0
1 3438 -707 0
1 3438 782 0
1 -3438 -632 0
1 -3438 797 0
1 3438 -767 0
1 -3453 707 0
1 3453 -782 0
1 -3453 723 0
1 3468 738 0
1 -722 -3393 0
1 722 3333 0
1 -722 723 0
1 737 -3423 0
1 752 -3393 0
1 752 -3423 0
1 -752 -3438 0
1 752 3319 0
1 -767 -3349 0
1 767 766 0
1 -767 -3423 0
1 3363 737 0
1 3363 -707 0
1 -3363 -752 0
1 3363 3378 0
1 3363 796 0
1 -3378 -3379 0
1 3393 -3394 0
1 3393 812 0
1 -3393 -752 0
1 -3408 707 0
1 -3408 812 0
1 -3408 827 0
1 781 3273 0
1 -781 780 0
1 781 -782 0
1 -781 -3378 0
1 -781 -3349 0
1 -796 781 0
1 796 3378 0
1 -811 -3274 0
1 811 -812 0
1 811 3244 0
1 -811 -3378 0
1 826 -3378 0
1 826 -3228 0
1 3304 3303 0
1 3304 -826 0
1 -3319 -902 0
1 3319 -886 0
1 -3319 3318 0
1 3319 -796 0
1 -3319 767 0
1 -3334 -3333 0
1 841 -840 0
1 841 -3274 0
1 -841 856 0
1 841 3289 0
1 856 -3289 0
1 856 -841 0
1 856 -3244 0
1 856 -857 0
1 -871 3274 0
1 -871 -3184 0
1 -871 -3319 0
1 -871 3229 0
1 871 3199 0
1 886 871 0
1 886 885 0
1 -886 -3259 0
1 3244 841 0
1 -3244 -976 0
1 3244 826 0
1 -3259 826 0
1 3274 -3275 0
1 -3274 976 0
1 -3274 917 0
1 3289 -961 0
1 -3289 -932 0
1 -3289 -3290 0
1 3289 -856 0
1 -901 -900 0
1 901 -3109 0
1 -901 -3154 0
1 916 -3169 0
1 -916 -3154 0
1 916 3094 0
1 -931 3199 0
1 -946 -931 0
1 946 -3214 0
1 946 -3184 0
1 -946 3155 0
1 946 3125 0
1 -946 3199 0
1 3184 916 0
1 3199 901 0
1 3199 -871 0
1 -3199 916 0
1 3214 -901 0
1 3214 3215 0
1 -3214 991 0
1 3229 931 0
1 -3229 -871 0
1 -3229 -1006 0
1 -3229 976 0
1 -3229 3228 0
1 -3229 -3230 0
1 -3229 -991 0
1 -960 -961 0
1 960 3140 0
1 -960 -3049 0
1 -960 -3155 0
1 -960 3094 0
1 -960 -3034 0
1 990 -3110 0
1 -1005 -3184 0
1 1005 -990 0
1 3125 1035 0
1 -3125 975 0
1 3140 -1035 0
1 3140 1005 0
1 -3140 -3125 0
1 -3140 1081 0
1 3140 -1050 0
1 -3155 -3170 0
1 3155 975 0
1 -3155 1081 0
1 3170 960 0
1 3170 3169 0
1 1020 3140 0
1 1020 3004 0
1 -1035 3110 0
1 -1035 3034 0
1 1050 3035 0
1 1050 -3095 0
1 -3080 1020 0
1 -3095 -1111 0
1 -3095 1020 0
1 -3110 -1050 0
1 -3110 990 0
1 -1080 1095 0
1 -1080 3020 0
1 1095 -1080 0
1 -1095 -3035 0
1 1125 -1110 0
1 1125 3035 0
1 -3005 -1080 0
1 3020 -1110 0
1 -3035 -1110 0
1 3050 1125 0
1 -3050 3049 0
1 3050 1080 0
1 -245 -4066 0
1 245 -260 0
1 245 -3975 0
1 245 3960 0
1 260 3975 0
1 -260 3945 0
1 -260 -4021 0
1 275 4036 0
1 275 4051 0
1 -290 -4006 0
1 -290 -3976 0
1 290 -3991 0
1 -290 3961 0
1 290 3930 0
1 -4066 4065 0
1 -305 -4036 0
1 -320 -4036 0
1 320 4006 0
1 320 -3930 0
1 -335 -4006 0
1 -335 3976 0
1 -335 3946 0
1 350 3931 0
1 3961 3962 0
1 3961 -365 0
1 3961 410 0
1 -3961 -380 0
1 -3976 -320 0
1 -3976 -3975 0
1 -3976 -395 0
1 3991 3990 0
1 3991 -440 0
1 4006 320 0
1 4006 -335 0
1 -4006 3991 0
1 365 3946 0
1 365 380 0
1 -380 3931 0
1 380 3811 0
1 -395 -3976 0
1 395 3916 0
1 -395 3826 0
1 395 410 0
1 410 3961 0
1 -410 -3857 0
1 -410 -3826 0
1 -410 3901 0
1 3901 -3900 0
1 3901 -3916 0
1 3916 365 0
1 3916 -469 0
1 3916 410 0
1 -3931 3932 0
1 -3931 -3946 0
1 3931 -395 0
1 -3931 -470 0
1 3946 -440 0
1 -424 -3916 0
1 -424 3857 0
1 439 -3781 0
1 439 -3901 0
1 -454 3782 0
1 -454 3901 0
1 -469 -3916 0
1 -469 3827 0
1 469 3797 0
1 469 -470 0
1 3842 -545 0
1 3842 439 0
1 -3842 410 0
1 -3857 3858 0
1 3872 3873 0
1 3872 -454 0
1 3872 -500 0
1 -3887 -3872 0
1 -3887 515 0
1 -3887 454 0
1 3887 424 0
1 -3887 530 0
1 484 485 0
1 -484 -3751 0
1 484 3857 0
1 -499 -484 0
1 499 -3692 0
1 -499 -3857 0
1 -499 3736 0
1 514 -3812 0
1 -514 -529 0
1 -514 -3857 0
1 -514 -3797 0
1 -529 3767 0
1 3782 484 0
1 -3782 529 0
1 3782 -499 0
1 -3782 -3797 0
1 -3797 619 0
1 -3797 559 0
1 -3797 -604 0
1 -3812 3813 0
1 -3812 -560 0
1 -3812 3827 0
1 -3812 604 0
1 -3827 -575 0
1 -544 3782 0
1 -544 -3677 0
1 559 -544 0
1 -559 3692 0
1 -559 -560 0
1 559 -3707 0
1 -559 3677 0
1 574 3782 0
1 574 -3722 0
1 574 -575 0
1 574 3663 0
1 574 3797 0
1 574 -3767 0
1 589 -3678 0
1 589 588 0
1 589 -590 0
1 -3722 679 0
1 3722 -589 0
1 3737 3722 0
1 -3737 529 0
1 -3737 -3738 0
1 -3737 603 0
1 -3752 514 0
1 -3752 3753 0
1 3752 619 0
1 3767 3752 0
1 3767 -3768 0
1 -3767 529 0
1 -3767 -3766 0
1 -3767 -604 0
1 -603 3693 0
1 603 -3663 0
1 603 -3647 0
1 618 -3678 0
1 -618 3647 0
1 633 -3587 0
1 -633 3603 0
1 -633 3737 0
1 -633 3708 0
1 -648 -3618 0
1 -648 -647 0
1 3663 -739 0
1 3663 -648 0
1 3663 3678 0
1 -3663 -633 0
1 3678 -708 0
1 3678 678 0
1 -3678 -648 0
1 3678 -3677 0
1 -3693 3692 0
1 3693 -3694 0
1 -3693 603 0
1 -3693 -574 0
1 -3708 -589 0
1 -663 662 0
1 -678 677 0
1 -678 3528 0
1 678 3663 0
1 678 -3572 0
1 -693 3648 0
1 693 -3558 0
1 -693 692 0
1 -708 3558 0
1 708 3663 0
1 -3603 -678 0
1 3603 648 0
1 3618 738 0
1 -3618 -753 0
1 -3618 3603 0
1 -3633 -3648 0
1 3648 -678 0
1 3648 648 0
1 3648 3633 0
1 3648 -693 0
1 723 -3618 0
1 723 724 0
1 723 3543 0
1 723 3483 0
1 738 -3588 0
1 738 3558 0
1 738 -3483 0
1 753 3543 0
1 -768 3558 0
1 768 3529 0
1 768 3499 0
1 768 -3543 0
1 -768 -3453 0
1 3558 812 0
1 3558 3543 0
1 3558 -827 0
1 3573 -738 0
1 -3573 708 0
1 -3573 843 0
1 3573 -813 0
1 3573 828 0
1 -3588 -738 0
1 -782 3393 0
1 -782 -3558 0
1 782 3438 0
1 -797 -3468 0
1 797 -796 0
1 797 798 0
1 -812 -3469 0
1 -827 -3499 0
1 827 -3514 0
1 827 828 0
1 -3484 3499 0
1 -3484 812 0
1 3484 3483 0
1 3499 -903 0
1 -3499 842 0
1 -3499 782 0
1 -3499 -753 0
1 -3514 843 0
1 -3514 -918 0
1 3514 3513 0
1 3529 -768 0
1 3529 3528 0
1 -3529 3530 0
1 3529 -753 0
1 -3529 -918 0
1 -3529 797 0
1 842 -3393 0
1 842 -843 0
1 857 -856 0
1 872 -3334 0
1 -872 -3379 0
1 872 3484 0
1 887 -3394 0
1 887 -3499 0
1 -887 886 0
1 887 -888 0
1 3424 -3425 0
1 3424 827 0
1 3424 -3423 0
1 3439 902 0
1 3439 -3438 0
1 -3439 3440 0
1 3439 -947 0
1 3454 3469 0
1 -3454 948 0
1 -3454 -3455 0
1 -3469 -903 0
1 902 3304 0
1 902 3274 0
1 902 3289 0
1 917 -3334 0
1 917 916 0
1 917 -3319 0
1 917 3289 0
1 -932 -3394 0
1 932 -3439 0
1 947 -3274 0
1 947 -3379 0
1 -947 3289 0
1 -3364 1037 0
1 -3364 -976 0
1 3379 3378 0
1 3379 947 0
1 -3379 -3380 0
1 3379 -917 0
1 3379 887 0
1 -3379 -1022 0
1 3394 932 0
1 -3409 902 0
1 3409 977 0
1 -3409 947 0
1 3409 -1022 0
1 961 -3214 0
1 976 -3244 0
1 976 -3214 0
1 976 3379 0
1 991 -3305 0
1 -991 -3245 0
1 991 -1006 0
1 -991 -3290 0
1 -3305 3320 0
1 -3305 991 0
1 -3320 3305 0
1 3320 1036 0
1 3335 -1067 0
1 3335 1037 0
1 3335 -1022 0
1 3350 1006 0
1 -3350 -947 0
1 3350 1052 0
1 -1021 -1036 0
1 1021 3245 0
1 -1021 -3155 0
1 1036 -3184 0
1 -1036 3155 0
1 1051 3305 0
1 -1051 3320 0
1 -1051 -1050 0
1 1051 -1052 0
1 1066 -3155 0
1 1066 1051 0
1 3245 -1036 0
1 3245 -1006 0
1 -3245 -1081 0
1 3260 1126 0
1 -3260 1006 0
1 -3260 -1081 0
1 -3260 991 0
1 -3275 -1112 0
1 3275 -1082 0
1 -3275 991 0
1 3290 1127 0
1 -3290 -1066 0
1 1081 -1096 0
1 1081 3215 0
1 1081 3125 0
1 1081 -1082 0
1 1096 -3170 0
1 1096 -1097 0
1 -1096 3245 0
1 -1096 -3155 0
1 1096 3095 0
1 -1111 -3200 0
1 -1111 -1126 0
1 1111 3260 0
1 -1111 3230 0
1 -1126 3215 0
1 -1126 3260 0
1 3185 -1066 0
1 -3185 -3184 0
1 -3185 1081 0
1 3215 -1096 0
1 3215 1066 0
1 3215 1081 0
1 3215 1051 0
1 -3230 -1126 0
1 -3230 3215 0
1 3230 -3229 0
1 -425 -4037 0
1 425 4052 0
1 -440 3946 0
1 440 4052 0
1 440 -3931 0
1 -455 -4007 0
1 -455 4022 0
1 -470 -4067 0
1 -470 -4052 0
1 4022 -515 0
1 -4022 425 0
1 4022 500 0
1 -4037 425 0
1 4037 -500 0
1 -4052 425 0
1 4052 -440 0
1 -4067 -455 0
1 4067 4052 0
1 4067 470 0
1 -485 -3887 0
1 485 4022 0
1 -485 -3931 0
1 485 3901 0
1 -500 3977 0
1 500 -3931 0
1 515 -514 0
1 -515 -3887 0
1 -515 -530 0
1 -515 3992 0
1 530 -3992 0
1 530 -3962 0
1 -3962 500 0
1 3962 605 0
1 -3977 -590 0
1 3977 560 0
1 3992 515 0
1 3992 -455 0
1 3992 470 0
1 -3992 -3991 0
1 4007 -3992 0
1 545 3872 0
1 -545 -560 0
1 545 3857 0
1 545 3932 0
1 560 -3812 0
1 560 3857 0
1 575 3843 0
1 -575 3902 0
1 590 -3843 0
1 -590 -3858 0
1 -590 -3902 0
1 -3902 -515 0
1 -3902 -680 0
1 -3902 590 0
1 -3902 560 0
1 -3902 -530 0
1 -3917 -649 0
1 3917 -560 0
1 -3917 665 0
1 3932 -545 0
1 3932 -650 0
1 -3932 620 0
1 3932 -590 0
1 -3932 -560 0
1 -3932 -530 0
1 3932 635 0
1 -3947 -3932 0
1 604 3782 0
1 604 619 0
1 -619 -3812 0
1 619 -3782 0
1 -619 -620 0
1 619 -3917 0
1 619 -3767 0
1 634 -3813 0
1 634 3783 0
1 634 -3888 0
1 634 3767 0
1 -649 -3752 0
1 649 3858 0
1 649 3902 0
1 -3843 -740 0
1 3843 3844 0
1 -3843 725 0
1 -3843 694 0
1 3858 -3843 0
1 -3858 -619 0
1 -3858 -694 0
1 -3858 634 0
1 -3873 -3872 0
1 -3873 -604 0
1 -3888 -604 0
1 664 -3828 0
1 -679 -3843 0
1 -679 680 0
1 -679 3737 0
1 694 693 0
1 694 3738 0
1 694 3708 0
1 709 -3813 0
1 -709 -3783 0
1 709 -3828 0
1 -709 -694 0
1 -3783 -739 0
1 -3783 3782 0
1 3783 3784 0
1 -3783 649 0
1 3783 664 0
1 3798 769 0
1 -3798 -739 0
1 3798 -724 0
1 3798 664 0
1 -3813 -770 0
1 3813 740 0
1 -3813 -649 0
1 3813 -3828 0
1 3813 694 0
1 -3828 -770 0
1 -3828 755 0
1 724 3783 0
1 -724 -3753 0
1 -724 -3768 0
1 -739 740 0
1 -739 -3768 0
1 -754 -3648 0
1 -754 -3723 0
1 754 -3633 0
1 -769 3648 0
1 769 3783 0
1 -769 3798 0
1 -769 -3738 0
1 3723 3722 0
1 -3723 724 0
1 -3738 -754 0
1 3738 798 0
1 3753 -814 0
1 -3753 -754 0
1 3753 724 0
1 3753 -694 0
1 3768 -754 0
1 3768 -694 0
1 -3768 -829 0
1 3768 799 0
1 783 -3588 0
1 -783 3723 0
1 -798 3723 0
1 798 -783 0
1 798 3603 0
1 813 3634 0
1 828 3588 0
1 828 3709 0
1 -828 -813 0
1 -828 -3604 0
1 -828 3738 0
1 3664 769 0
1 3664 -858 0
1 3664 828 0
1 -3679 -3680 0
1 -3679 873 0
1 -3679 -813 0
1 -3679 -783 0
1 3679 3664 0
1 3679 919 0
1 -3679 -858 0
1 3694 859 0
1 3694 828 0
1 -3694 798 0
1 -3709 -3708 0
1 3709 844 0
1 3709 -3694 0
1 -3709 -754 0
1 -3709 828 0
1 -843 -3664 0
1 843 -3634 0
1 843 3679 0
1 858 -3619 0
1 858 3679 0
1 873 -3649 0
1 873 3664 0
1 888 -873 0
1 -888 -3604 0
1 -888 3574 0
1 3604 -843 0
1 3604 -978 0
1 -3604 -3603 0
1 3604 -888 0
1 3619 -948 0
1 -3619 -3604 0
1 3619 -918 0
1 3634 -3633 0
1 -3634 -858 0
1 3634 -828 0
1 3649 888 0
1 -3649 858 0
1 903 902 0
1 903 3604 0
1 918 -3589 0
1 918 3454 0
1 933 934 0
1 -933 3544 0
1 -933 3454 0
1 -948 3469 0
1 948 -949 0
1 948 3544 0
1 3544 962 0
1 -3544 933 0
1 3544 -1038 0
1 -3559 873 0
1 -3559 -1038 0
1 -3559 -1007 0
1 3559 977 0
1 3559 918 0
1 3559 888 0
1 -3574 993 0
1 -3574 3575 0
1 3589 -963 0
1 3589 3588 0
1 -3589 903 0
1 3589 918 0
1 3589 888 0
1 962 3424 0
1 962 3469 0
1 -962 -3439 0
1 -977 -3424 0
1 -977 -962 0
1 -977 -3515 0
1 977 -3454 0
1 992 3425 0
1 992 -3455 0
1 -992 3530 0
1 1007 3440 0
1 1007 3455 0
1 3485 3500 0
1 -3485 1007 0
1 3485 1052 0
1 3500 -1098 0
1 3500 1022 0
1 3515 -3530 0
1 3515 -1038 0
1 3515 1053 0
1 -3515 1023 0
1 -3530 933 0
1 -3530 3529 0
1 -3530 -1068 0
1 -1022 -3485 0
1 -1037 3425 0
1 -1037 3335 0
1 1037 -3440 0
1 1037 -3409 0
1 1037 3455 0
1 -1052 -3470 0
1 1052 3380 0
1 -1052 -3350 0
1 -1052 3455 0
1 1067 1066 0
1 -1067 -3440 0
1 -1067 3380 0
1 1067 3455 0
1 3440 -1097 0
1 -3440 1007 0
1 3455 1113 0
1 -3470 -1037 0
1 -1082 -3395 0
1 1082 -3305 0
1 1097 -3395 0
1 1097 -3335 0
1 1097 -3380 0
1 -1097 -3350 0
1 1097 3290 0
1 1112 -3275 0
1 -1112 -3380 0
1 -3365 1112 0
1 3380 -1097 0
1 3380 1082 0
1 -3410 -3395 0
1 605 4068 0
1 -605 4038 0
1 605 -3947 0
1 605 -4023 0
1 620 -619 0
1 -650 4038 0
1 -650 3947 0
1 -4023 650 0
1 -4023 620 0
1 4023 -635 0
1 4023 -605 0
1 -4038 -710 0
1 4038 -4039 0
1 -4053 620 0
1 4068 -4069 0
1 4068 650 0
1 -4068 -620 0
1 4068 635 0
1 665 -3978 0
1 680 -4038 0
1 680 3993 0
1 695 3993 0
1 3963 800 0
1 -3963 680 0
1 3963 650 0
1 3963 725 0
1 -3963 -3962 0
1 3978 680 0
1 3978 -3977 0
1 3978 -785 0
1 3978 725 0
1 3978 695 0
1 3993 -800 0
1 -3993 -650 0
1 4008 -710 0
1 4008 -680 0
1 -4008 -650 0
1 4008 665 0
1 4008 3993 0
1 -725 3843 0
1 -740 3873 0
1 -740 -3843 0
1 740 -3858 0
1 -740 -3963 0
1 740 3933 0
1 755 3874 0
1 755 -3978 0
1 -755 3948 0
1 755 3903 0
1 3903 710 0
1 -3903 -3918 0
1 3903 -725 0
1 -3903 695 0
1 3903 -860 0
1 3918 710 0
1 -3918 845 0
1 3918 -814 0
1 3918 784 0
1 -3918 -725 0
1 3918 3903 0
1 -3918 -799 0
1 3933 710 0
1 -3933 3932 0
1 3933 755 0
1 3933 -830 0
1 3948 -740 0
1 -3948 -3949 0
1 -3948 -3933 0
1 -784 3874 0
1 784 -785 0
1 784 3889 0
1 -784 -3903 0
1 799 -3753 0
1 -799 -3828 0
1 -799 3798 0
1 -814 3874 0
1 814 829 0
1 814 3903 0
1 -829 -3829 0
1 829 -3903 0
1 -3844 859 0
1 -3859 784 0
1 -3874 -905 0
1 -3874 -784 0
1 -3889 -3874 0
1 -3889 -905 0
1 -3889 845 0
1 -3889 3888 0
1 -3889 -755 0
1 -844 3859 0
1 -844 3799 0
1 -844 -3768 0
1 844 -3738 0
1 859 3784 0
1 -859 -3768 0
1 -859 858 0
1 -889 -3829 0
1 -889 3799 0
1 -889 -3709 0
1 3784 904 0
1 -3784 844 0
1 3784 979 0
1 -3784 -829 0
1 3799 -934 0
1 3799 -814 0
1 -3814 3813 0
1 3814 -3815 0
1 -3814 979 0
1 -3814 -829 0
1 -3829 -3814 0
1 -3829 -814 0
1 -3829 -950 0
1 -919 -3784 0
1 -919 -3799 0
1 -919 -3709 0
1 -934 -933 0
1 -934 -3799 0
1 -949 -3695 0
1 -949 3799 0
1 -949 3710 0
1 3724 874 0
1 -3724 3723 0
1 3724 3725 0
1 3739 993 0
1 -3739 -934 0
1 3739 904 0
1 3739 -1008 0
1 -3739 -3738 0
1 -3754 -994 0
1 3754 964 0
1 3769 -874 0
1 -3769 1009 0
1 963 -3680 0
1 -963 -3695 0
1 963 -978 0
1 -963 -3739 0
1 978 963 0
1 -978 3724 0
1 993 3574 0
1 -993 -3710 0
1 1008 -3650 0
1 3665 1099 0
1 -3665 -978 0
1 -3665 1053 0
1 3680 -963 0
1 3680 -1023 0
1 3695 -1024 0
1 3695 -3694 0
1 3710 -1024 0
1 -3710 934 0
1 -3710 1008 0
1 3710 -1054 0
1 -1023 3530 0
1 1023 3665 0
1 1023 -3635 0
1 1023 3515 0
1 1038 -3680 0
1 -1038 3589 0
1 -1038 3574 0
1 -1038 -1023 0
1 1053 3620 0
1 -1053 3530 0
1 1053 3545 0
1 1068 -3590 0
1 -1068 -3560 0
1 3605 1023 0
1 3620 -3619 0
1 -3620 1008 0
1 -3635 -1053 0
1 -3650 3649 0
1 -3650 1129 0
1 3650 3635 0
1 1083 -3620 0
1 -1083 -1098 0
1 -1083 -3575 0
1 1083 -1084 0
1 1083 3455 0
1 -1098 3560 0
1 1098 3530 0
1 -1098 1099 0
1 -1098 3500 0
1 -1113 3620 0
1 -1113 -3470 0
1 -1113 -3605 0
1 1128 -3590 0
1 1128 -3545 0
1 -3545 1098 0
1 -3560 -1068 0
1 3560 -1053 0
1 -3575 -3590 0
1 -3575 -1068 0
1 -3575 1113 0
1 3590 3575 0
1 3590 1068 0
1 785 -4024 0
1 -800 4069 0
1 800 -4039 0
1 -800 3993 0
1 -815 -4069 0
1 -815 -3994 0
1 -830 -4024 0
1 -4039 800 0
1 4039 -845 0
1 -4039 890 0
1 -4039 830 0
1 4054 800 0
1 4069 815 0
1 -860 3994 0
1 860 859 0
1 -875 3979 0
1 -875 3964 0
1 -875 3994 0
1 890 3874 0
1 -890 3889 0
1 -3964 -935 0
1 3964 845 0
1 -3964 890 0
1 -3979 -935 0
1 -3979 845 0
1 -3979 -980 0
1 -3979 -920 0
1 3994 875 0
1 3994 845 0
1 4009 -980 0
1 905 3874 0
1 -905 -3844 0
1 905 3979 0
1 -905 3829 0
1 -905 3964 0
1 -920 3874 0
1 920 -3919 0
1 935 3934 0
1 -950 3875 0
1 3904 -1025 0
1 3904 935 0
1 3904 -905 0
1 -3919 -1040 0
1 3919 950 0
1 3934 -965 0
1 3934 875 0
1 -3934 -1040 0
1 -3949 -935 0
1 3949 -3948 0
1 964 3904 0
1 -964 963 0
1 964 -3875 0
1 -964 -3890 0
1 979 -3875 0
1 -979 3919 0
1 -979 -3890 0
1 979 -980 0
1 979 -3829 0
1 -979 -3799 0
1 -994 3904 0
1 -994 -3785 0
1 994 -3800 0
1 -994 -3769 0
1 1009 -3845 0
1 -1009 3785 0
1 1009 -3754 0
1 1009 -3919 0
1 -3845 994 0
1 -3845 935 0
1 -3845 -1039 0
1 3860 994 0
1 -3860 -3845 0
1 3860 1069 0
1 -3860 3859 0
1 3875 994 0
1 3875 964 0
1 3875 -935 0
1 3890 -3875 0
1 3890 964 0
1 3890 -935 0
1 -3890 -1040 0
1 3890 1009 0
1 -3890 950 0
1 -1024 3754 0
1 -1039 -3724 0
1 1039 1040 0
1 -1039 -3860 0
1 1054 -3785 0
1 1054 -1069 0
1 -1054 -3860 0
1 1069 3725 0
1 1069 -3770 0
1 -1069 3740 0
1 -3785 3784 0
1 -3785 3800 0
1 -3800 1024 0
1 -3800 3785 0
1 -3800 1114 0
1 3815 1130 0
1 3815 -1009 0
1 -3830 3815 0
1 -3830 1054 0
1 1084 3785 0
1 1084 3755 0
1 -1084 1085 0
1 -1084 3710 0
1 -1099 3770 0
1 1099 3710 0
1 1114 3785 0
1 1114 -1113 0
1 -1129 -3785 0
1 3725 -3740 0
1 3725 3724 0
1 -3725 1054 0
1 -3740 1129 0
1 -3740 1099 0
1 -3740 -1114 0
1 -3740 1054 0
1 -3755 -3754 0
1 -3755 -3770 0
1 3770 1099 0
1 -965 -3979 0
1 -965 -3964 0
1 -980 4070 0
1 980 -3949 0
1 995 994 0
1 -995 4070 0
1 995 -3980 0
1 995 3934 0
1 -1010 4040 0
1 -1010 -3980 0
1 -1010 -4025 0
1 1010 -3934 0
1 -4055 -995 0
1 4070 -4069 0
1 -1025 -3980 0
1 1025 -3949 0
1 1025 1040 0
1 1025 3995 0
1 1040 -3904 0
1 1040 1039 0
1 1040 -3965 0
1 1055 -3995 0
1 -1055 1054 0
1 1055 3935 0
1 1070 -3980 0
1 -1070 -3935 0
1 -1070 3965 0
1 3965 -3980 0
1 3965 1085 0
1 -3980 -1070 0
1 3995 -1070 0
1 3995 1010 0
1 4010 1070 0
1 4010 1040 0
1 1100 -3905 0
1 -1100 3845 0
1 -1100 1099 0
1 -1130 1115 0
1 -1130 -3935 0
1 3905 -3920 0
1 -3920 -1070 0
1 3920 3919 0
1 3935 -3934 0
1 -3950 3949 0
1 -3950 -1070 0
1 3950 1115 0
1 3950 1055 0
